tsp_data/att48.tsp
NAME : att48
COMMENT : 48 capitals of the US (Padberg/Rinaldi)
TYPE : TSP
DIMENSION : 48
EDGE_WEIGHT_TYPE : EUC_2D
NODE_COORD_SECTION"	
0 3876 2587 0
1 6734 1453 1
2 2233 10 0
3 5530 1424 1
4 401 841 1
5 3082 1644 0
6 7608 4458 1
7 7573 3716 1
8 7265 1268 1
9 6898 1885 1
10 1112 2049 1
EOF