build/att48
Problem name: att48
NumberOfCustomers: 10
NumberOfDrones: 2
Cost 
25354
25208
23692
25208
Final Cost: 23692
Num of Iteration: 4
Timer: 6.25846